set Strategy1 := 0 1 2 3 ;
set Strategy2 := 1 2 ;
T := 0
param u
[0,0] -580.486342499 [0,1] -468.335383333 [0,2] -580.498886666 [0,3] 8589.83772222 [1,0] 1232.85914584 [1,1] 2303.07589167 [1,2] 1232.472655 [1,3] 8047.528575 [2,0] 1134.19552917 [2,1] 2445.97445833 [2,2] 1134.56801751 [2,3] 8047.379475 ;